p cnf 15 20
15 10 -7 0
-15 -10 -6 0
-15 -10 -4 0
-15 -6 -2 0
-15 -4 -3 0
-14 -12 11 0
-14 8 2 0
-14 -6 2 0
-14 5 2 0
14 -2 1 0
-13 4 1 0
-12 -11 -3 0
12 7 4 0
12 5 -1 0
-11 -10 3 0
-11 -9 6 0
-11 4 -1 0
10 6 2 0
-10 -5 2 0
10 -2 -1 0
